language Essence 1.3

letting blksize_delta be
        function(1 --> 8, 2 --> 8, 3 --> 9, 4 --> 8, 5 --> 8, 6 --> 9, 7 --> 9, 8 --> 10, 9 --> 8, 10 --> 8)
letting maxcars be
        function(1 --> 10, 2 --> 10, 3 --> 10, 4 --> 10, 5 --> 10, 6 --> 10, 7 --> 10, 8 --> 10, 9 --> 10, 10 --> 10)
letting n_cars be 250
letting n_classes be 51
letting n_options be 10
letting quantity be
        function(1 --> 5, 2 --> 40, 3 --> 7, 4 --> 4, 5 --> 8, 6 --> 6, 7 --> 4, 8 --> 4, 9 --> 4, 10 --> 4, 11 --> 4,
                 12 --> 4, 13 --> 4, 14 --> 4, 15 --> 4, 16 --> 4, 17 --> 4, 18 --> 4, 19 --> 4, 20 --> 4, 21 --> 4,
                 22 --> 4, 23 --> 4, 24 --> 4, 25 --> 4, 26 --> 4, 27 --> 4, 28 --> 4, 29 --> 4, 30 --> 4, 31 --> 4,
                 32 --> 4, 33 --> 4, 34 --> 4, 35 --> 4, 36 --> 4, 37 --> 4, 38 --> 4, 39 --> 4, 40 --> 4, 41 --> 4,
                 42 --> 4, 43 --> 4, 44 --> 4, 45 --> 4, 46 --> 4, 47 --> 4, 48 --> 4, 49 --> 4, 50 --> 4, 51 --> 4)
letting usage be
        relation((1, 1), (1, 2), (1, 3), (1, 4), (2, 1), (2, 2), (2, 3), (2, 4), (2, 10), (3, 1), (3, 4), (4, 10),
                 (5, 2), (5, 3), (5, 10), (6, 7), (7, 2), (7, 7), (8, 1), (8, 3), (8, 7), (9, 1), (9, 2), (9, 4),
                 (9, 5), (9, 7), (9, 8), (9, 9), (9, 10), (10, 10), (11, 10), (12, 1), (12, 2), (12, 3), (12, 4),
                 (13, 1), (13, 5), (14, 6), (14, 7), (15, 1), (16, 8), (17, 1), (17, 2), (18, 1), (18, 10), (19, 2),
                 (19, 9), (20, 6), (21, 3), (22, 1), (22, 2), (22, 3), (22, 4), (22, 7), (22, 10), (23, 3), (23, 4),
                 (24, 7), (25, 1), (25, 2), (25, 7), (26, 2), (26, 3), (26, 4), (26, 7), (26, 8), (27, 1), (27, 4),
                 (27, 6), (27, 9), (28, 1), (28, 2), (28, 10), (29, 10), (30, 1), (30, 4), (30, 9), (31, 4), (31, 7),
                 (32, 1), (32, 2), (32, 4), (32, 6), (33, 1), (33, 2), (33, 10), (34, 3), (34, 8), (34, 9), (35, 2),
                 (35, 4), (35, 6), (36, 3), (36, 8), (36, 9), (36, 10), (37, 1), (37, 6), (37, 9), (37, 10), (38, 5),
                 (38, 6), (39, 6), (39, 10), (40, 4), (41, 1), (41, 5), (41, 10), (42, 7), (42, 8), (42, 9), (42, 10),
                 (43, 1), (43, 3), (43, 6), (43, 10), (44, 5), (44, 6), (44, 10), (45, 6), (45, 8), (46, 9), (47, 2),
                 (47, 5), (47, 9), (48, 5), (48, 8), (48, 9), (48, 10), (49, 2), (49, 7), (50, 7), (50, 10), (51, 6),
                 (51, 7), (51, 8), (51, 10))
$ Visualisation for usage
$  1  1
$  1  2
$  1  3
$  1  4
$  2  1
$  2  2
$  2  3
$  2  4
$  2 10
$  3  1
$  3  4
$  4 10
$  5  2
$  5  3
$  5 10
$  6  7
$  7  2
$  7  7
$  8  1
$  8  3
$  8  7
$  9  1
$  9  2
$  9  4
$  9  5
$  9  7
$  9  8
$  9  9
$  9 10
$ 10 10
$ 11 10
$ 12  1
$ 12  2
$ 12  3
$ 12  4
$ 13  1
$ 13  5
$ 14  6
$ 14  7
$ 15  1
$ 16  8
$ 17  1
$ 17  2
$ 18  1
$ 18 10
$ 19  2
$ 19  9
$ 20  6
$ 21  3
$ 22  1
$ 22  2
$ 22  3
$ 22  4
$ 22  7
$ 22 10
$ 23  3
$ 23  4
$ 24  7
$ 25  1
$ 25  2
$ 25  7
$ 26  2
$ 26  3
$ 26  4
$ 26  7
$ 26  8
$ 27  1
$ 27  4
$ 27  6
$ 27  9
$ 28  1
$ 28  2
$ 28 10
$ 29 10
$ 30  1
$ 30  4
$ 30  9
$ 31  4
$ 31  7
$ 32  1
$ 32  2
$ 32  4
$ 32  6
$ 33  1
$ 33  2
$ 33 10
$ 34  3
$ 34  8
$ 34  9
$ 35  2
$ 35  4
$ 35  6
$ 36  3
$ 36  8
$ 36  9
$ 36 10
$ 37  1
$ 37  6
$ 37  9
$ 37 10
$ 38  5
$ 38  6
$ 39  6
$ 39 10
$ 40  4
$ 41  1
$ 41  5
$ 41 10
$ 42  7
$ 42  8
$ 42  9
$ 42 10
$ 43  1
$ 43  3
$ 43  6
$ 43 10
$ 44  5
$ 44  6
$ 44 10
$ 45  6
$ 45  8
$ 46  9
$ 47  2
$ 47  5
$ 47  9
$ 48  5
$ 48  8
$ 48  9
$ 48 10
$ 49  2
$ 49  7
$ 50  7
$ 50 10
$ 51  6
$ 51  7
$ 51  8
$ 51 10

